files/task.lp
Minimize
obj: 11 x - 13.1 y
Subject To
a1: -11 x + 13 y <= -10
a2: x + 10 y <= 90
Generals
x y
End
