files/task.mps
* SCIP STATISTICS
*   Problem name     : /mnt/d/dev/Cutting-Plane-Generators/files/task.lp
*   Variables        : 2 (0 binary, 0 integer, 0 implicit integer, 2 continuous)
*   Constraints      : 2
NAME          /mnt/d/dev/Cutting-Plane-Generators/files/task.lp
OBJSENSE
  MIN
ROWS
 N  Obj 
 L  a1 
 L  a2 
COLUMNS
    x         Obj                             -1  a1                               4 
    x         a2                               3 
    y         Obj                           -1.1  a1                               3 
    y         a2                               4 
RHS
    RHS       a1                              10  a2                              10 
BOUNDS
 PL Bound     x                                  
 PL Bound     y                                  
ENDATA